n = 21;
k = 2;
roles = [
{g, f},
{d, f},
{g, d},
{f, d},
{d, g},
{g, f},
{m, f},
{m, d},
{f, d},
{g, d},
{m, g},
{m, g},
{f, d},
{g, f},
{m, g},
{f, m},
{g, f},
{f, m},
{m, f},
{d, g},
{f, m}
];
num_pairs = 3;
player1 = [7, 4, 13];
player2 = [8, 15, 2];
